c Sudoku solution
p cnf 729 0
211 0
265 0
314 0
326 0
349 0
378 0
397 0
484 0
496 0
528 0
553 0
562 0
595 0
624 0
544 0
635 0
385 0
669 0
673 0
691 0
688 0
472 0
612 0
531 0
516 0
758 0
823 0
837 0
866 0
942 0
977 0
579 0
587 0
715 0
875 0
841 0
955 0
859 0
894 0
998 0
882 0
818 0
919 0
921 0
722 0
125 0
445 0
468 0
451 0
352 0
361 0
333 0
117 0
229 0
413 0
439 0
427 0
767 0
964 0
743 0
799 0
983 0
734 0
936 0
163 0
286 0
293 0
192 0
274 0
171 0
189 0
138 0
232 0
154 0
146 0
257 0
248 0
647 0
656 0
776 0
781 0
